
  12    4
  10   10   10   10

   0   0   0   0   0   6 2 3 5 6 7 11 
   8  10  10  10  10   2 10 4 
   6  10  10  10  10   2 9 8 
   2  10  10  10  10   1 8 
   1  10  10  10  10   1 8 
   7  10  10  10  10   1 8 
   2  10  10  10  10   1 8 
   3  10  10  10  10   1 12
   3  10  10  10  10   1 12
  10  10  10  10  10   1 12
   4  10  10  10  10   1 12
   0   0   0   0   0   0 
